(set-logic QF_S)
(declare-fun _var_0xINPUT_103927_() String)
(declare-fun __woorpje_diseq_pref0_() String)
(declare-fun __woorpje_diseq_suf_l0_() String)
(declare-fun __woorpje_diseq_suf_r0_() String)
(assert (=(str.++  "SDu11NpJQd" "")(str.++ _var_0xINPUT_103927_  "")) )
(check-sat)
